c Created with the Wolfram Language : www.wolfram.com
c 
p edge 80 653
e 1 2
e 5 7
e 2 8
e 7 8
e 2 9
e 9 10
e 3 11
e 5 11
e 8 11
e 2 12
e 5 12
e 6 12
e 2 13
e 7 13
e 10 13
e 3 14
e 9 14
e 13 14
e 1 15
e 6 15
e 7 15
e 9 16
e 11 16
e 3 17
e 5 17
e 3 18
e 5 18
e 11 18
e 17 18
e 4 19
e 14 19
e 15 19
e 6 20
e 11 20
e 12 20
e 2 21
e 3 21
e 7 21
e 15 21
e 16 21
e 5 22
e 7 22
e 10 22
e 11 22
e 12 22
e 16 22
e 21 22
e 1 23
e 2 23
e 11 23
e 2 24
e 18 24
e 19 24
e 23 24
e 2 25
e 9 25
e 18 25
e 20 25
e 24 25
e 7 26
e 17 26
e 22 26
e 9 27
e 18 27
e 22 27
e 1 28
e 8 28
e 10 28
e 11 28
e 17 28
e 19 28
e 22 28
e 23 28
e 24 28
e 3 29
e 9 29
e 11 29
e 16 29
e 20 29
e 22 29
e 26 29
e 28 29
e 5 30
e 8 30
e 10 30
e 15 30
e 17 30
e 18 30
e 23 30
e 3 31
e 5 31
e 6 31
e 8 31
e 9 31
e 16 31
e 23 31
e 27 31
e 29 31
e 6 32
e 9 32
e 12 32
e 14 32
e 16 32
e 17 32
e 24 32
e 29 32
e 5 33
e 12 33
e 15 33
e 22 33
e 25 33
e 31 33
e 32 33
e 1 34
e 21 34
e 27 34
e 5 35
e 10 35
e 11 35
e 19 35
e 22 35
e 24 35
e 27 35
e 12 36
e 14 36
e 19 36
e 24 36
e 31 36
e 1 37
e 4 37
e 6 37
e 13 37
e 14 37
e 18 37
e 33 37
e 35 37
e 36 37
e 3 38
e 4 38
e 9 38
e 14 38
e 31 38
e 33 38
e 36 38
e 23 39
e 34 39
e 37 39
e 1 40
e 11 40
e 26 40
e 32 40
e 33 40
e 4 41
e 23 41
e 29 41
e 31 41
e 35 41
e 39 41
e 1 42
e 12 42
e 13 42
e 15 42
e 18 42
e 28 42
e 34 42
e 40 42
e 41 42
e 5 43
e 14 43
e 29 43
e 35 43
e 39 43
e 42 43
e 4 44
e 6 44
e 8 44
e 14 44
e 28 44
e 30 44
e 32 44
e 33 44
e 37 44
e 39 44
e 1 45
e 4 45
e 8 45
e 9 45
e 13 45
e 14 45
e 16 45
e 17 45
e 36 45
e 39 45
e 42 45
e 44 45
e 1 46
e 9 46
e 11 46
e 13 46
e 14 46
e 16 46
e 21 46
e 24 46
e 38 46
e 2 47
e 6 47
e 7 47
e 12 47
e 13 47
e 17 47
e 24 47
e 35 47
e 42 47
e 46 47
e 6 48
e 8 48
e 18 48
e 20 48
e 21 48
e 28 48
e 35 48
e 46 48
e 9 49
e 13 49
e 15 49
e 20 49
e 21 49
e 28 49
e 29 49
e 33 49
e 36 49
e 37 49
e 40 49
e 41 49
e 44 49
e 48 49
e 2 50
e 19 50
e 21 50
e 24 50
e 33 50
e 34 50
e 44 50
e 7 51
e 18 51
e 27 51
e 28 51
e 32 51
e 37 51
e 49 51
e 11 52
e 15 52
e 16 52
e 29 52
e 34 52
e 36 52
e 48 52
e 50 52
e 1 53
e 3 53
e 5 53
e 8 53
e 11 53
e 13 53
e 33 53
e 35 53
e 37 53
e 41 53
e 43 53
e 44 53
e 47 53
e 50 53
e 51 53
e 6 54
e 7 54
e 12 54
e 13 54
e 18 54
e 23 54
e 27 54
e 37 54
e 42 54
e 48 54
e 51 54
e 1 55
e 3 55
e 5 55
e 10 55
e 27 55
e 32 55
e 36 55
e 37 55
e 41 55
e 2 56
e 12 56
e 15 56
e 17 56
e 26 56
e 43 56
e 45 56
e 46 56
e 54 56
e 7 57
e 13 57
e 18 57
e 22 57
e 23 57
e 27 57
e 30 57
e 32 57
e 33 57
e 41 57
e 45 57
e 53 57
e 5 58
e 7 58
e 8 58
e 13 58
e 16 58
e 22 58
e 37 58
e 40 58
e 50 58
e 53 58
e 56 58
e 57 58
e 11 59
e 13 59
e 17 59
e 20 59
e 25 59
e 27 59
e 28 59
e 30 59
e 32 59
e 40 59
e 42 59
e 43 59
e 44 59
e 46 59
e 50 59
e 51 59
e 52 59
e 1 60
e 2 60
e 11 60
e 14 60
e 17 60
e 22 60
e 24 60
e 25 60
e 39 60
e 47 60
e 1 61
e 6 61
e 13 61
e 14 61
e 15 61
e 22 61
e 25 61
e 26 61
e 27 61
e 32 61
e 35 61
e 41 61
e 42 61
e 43 61
e 47 61
e 52 61
e 53 61
e 60 61
e 3 62
e 10 62
e 15 62
e 19 62
e 21 62
e 23 62
e 30 62
e 42 62
e 46 62
e 49 62
e 50 62
e 61 62
e 2 63
e 6 63
e 8 63
e 13 63
e 19 63
e 24 63
e 36 63
e 41 63
e 44 63
e 49 63
e 50 63
e 53 63
e 1 64
e 9 64
e 10 64
e 20 64
e 21 64
e 23 64
e 30 64
e 36 64
e 39 64
e 42 64
e 44 64
e 53 64
e 54 64
e 55 64
e 59 64
e 60 64
e 62 64
e 2 65
e 10 65
e 11 65
e 14 65
e 16 65
e 18 65
e 19 65
e 26 65
e 27 65
e 30 65
e 35 65
e 37 65
e 40 65
e 45 65
e 53 65
e 60 65
e 1 66
e 5 66
e 10 66
e 14 66
e 20 66
e 24 66
e 25 66
e 26 66
e 29 66
e 44 66
e 45 66
e 59 66
e 60 66
e 62 66
e 63 66
e 65 66
e 3 67
e 8 67
e 22 67
e 35 67
e 38 67
e 55 67
e 2 68
e 4 68
e 7 68
e 8 68
e 11 68
e 12 68
e 13 68
e 15 68
e 16 68
e 19 68
e 25 68
e 27 68
e 28 68
e 29 68
e 32 68
e 41 68
e 45 68
e 48 68
e 61 68
e 63 68
e 4 69
e 7 69
e 8 69
e 37 69
e 43 69
e 44 69
e 59 69
e 62 69
e 65 69
e 66 69
e 3 70
e 13 70
e 16 70
e 21 70
e 30 70
e 35 70
e 36 70
e 39 70
e 43 70
e 47 70
e 52 70
e 54 70
e 58 70
e 60 70
e 64 70
e 68 70
e 2 71
e 16 71
e 17 71
e 18 71
e 21 71
e 35 71
e 36 71
e 37 71
e 45 71
e 46 71
e 51 71
e 54 71
e 57 71
e 59 71
e 69 71
e 70 71
e 1 72
e 7 72
e 12 72
e 17 72
e 21 72
e 28 72
e 29 72
e 31 72
e 40 72
e 42 72
e 54 72
e 1 73
e 2 73
e 8 73
e 9 73
e 10 73
e 12 73
e 14 73
e 17 73
e 19 73
e 29 73
e 35 73
e 43 73
e 50 73
e 62 73
e 66 73
e 3 74
e 4 74
e 9 74
e 13 74
e 14 74
e 15 74
e 16 74
e 25 74
e 26 74
e 27 74
e 29 74
e 37 74
e 43 74
e 49 74
e 58 74
e 64 74
e 67 74
e 71 74
e 8 75
e 33 75
e 38 75
e 45 75
e 54 75
e 66 75
e 68 75
e 72 75
e 73 75
e 74 75
e 4 76
e 11 76
e 13 76
e 21 76
e 23 76
e 24 76
e 29 76
e 32 76
e 34 76
e 35 76
e 42 76
e 44 76
e 51 76
e 54 76
e 58 76
e 64 76
e 65 76
e 69 76
e 71 76
e 73 76
e 75 76
e 13 77
e 21 77
e 27 77
e 30 77
e 46 77
e 48 77
e 55 77
e 56 77
e 57 77
e 59 77
e 62 77
e 75 77
e 1 78
e 4 78
e 15 78
e 18 78
e 19 78
e 20 78
e 21 78
e 29 78
e 30 78
e 33 78
e 39 78
e 40 78
e 48 78
e 53 78
e 56 78
e 58 78
e 66 78
e 69 78
e 73 78
e 76 78
e 2 79
e 4 79
e 5 79
e 7 79
e 8 79
e 19 79
e 28 79
e 29 79
e 34 79
e 36 79
e 44 79
e 49 79
e 55 79
e 76 79
e 78 79
e 1 80
e 7 80
e 9 80
e 13 80
e 17 80
e 18 80
e 19 80
e 21 80
e 23 80
e 24 80
e 34 80
e 46 80
e 56 80
e 60 80
e 65 80
e 66 80
e 68 80
e 71 80
e 78 80
